c preprocessed version of HoffmanSingletonGraph, 50 vertices, 175 edges
p td 50 175
0 12
0 18
0 23
0 24
0 29
0 35
0 40
1 19
1 23
1 25
1 30
1 34
1 36
1 41
2 4
2 5
2 18
2 26
2 33
2 36
2 43
3 5
3 6
3 19
3 27
3 29
3 37
3 44
4 6
4 20
4 28
4 30
4 38
4 40
5 21
5 24
5 31
5 39
5 41
6 22
6 25
6 32
6 35
6 42
7 9
7 10
7 18
7 27
7 30
7 39
7 42
8 10
8 11
8 19
8 28
8 31
8 35
8 43
9 11
9 20
9 24
9 32
9 36
9 44
10 21
10 25
10 33
10 37
10 40
11 22
11 26
11 29
11 38
11 41
12 20
12 26
12 31
12 34
12 37
12 42
13 15
13 16
13 18
13 28
13 32
13 37
13 41
14 16
14 17
14 19
14 24
14 33
14 38
14 42
15 17
15 20
15 25
15 29
15 39
15 43
16 21
16 26
16 30
16 35
16 44
17 22
17 27
17 31
17 36
17 40
18 19
18 22
19 20
20 21
21 22
23 21
23 27
23 32
23 38
23 43
24 25
24 28
25 26
26 27
27 28
29 30
29 33
30 31
31 32
32 33
34 22
34 28
34 33
34 39
34 44
35 36
35 39
36 37
37 38
38 39
40 41
40 44
41 42
42 43
43 44
45 18
45 25
45 31
45 38
45 44
45 47
45 48
46 19
46 26
46 32
46 39
46 40
46 48
46 49
47 20
47 27
47 33
47 35
47 41
47 49
48 21
48 28
48 29
48 36
48 42
49 22
49 24
49 30
49 37
49 43
